\ENCODING=ISO-8859-1
\Problem name: IloCplex

Minimize
 obj: x1 + x2 + x3 + x4 + x5 + x6 + x7 + x8 + x9 + x10 + x11 + x12 + x13
Subject To
 c1: x3 + x5 + 2 x6 + 3 x7 + x9 + 2 x10 + 3 x11 + 4 x12 >= 500
 c2: 3 x2 + x3 + 5 x4 + 3 x5 + 2 x6 + 8 x8 + 6 x9 + 4 x10 + 2 x11 >= 300
 c3: 3 x1 + 2 x2 + 2 x3 + x4 + x5 + x6 + x7 >= 200
Bounds
 0 <= x1 <= 1000000
 0 <= x2 <= 1000000
 0 <= x3 <= 1000000
 0 <= x4 <= 1000000
 0 <= x5 <= 1000000
 0 <= x6 <= 1000000
 0 <= x7 <= 1000000
 0 <= x8 <= 1000000
 0 <= x9 <= 1000000
 0 <= x10 <= 1000000
 0 <= x11 <= 1000000
 0 <= x12 <= 1000000
      x13 = 0
End
